files/upTests/_functions/func_setToTuple/0001.eprime
language ESSENCE' 1.0

find f_AsReln_RelationAsSet_ExplicitVarSize_tuple1:
        matrix indexed by [int(1..16)] of bool
find f_AsReln_RelationAsSet_ExplicitVarSize_tuple2_tuple1_Explicit:
        matrix indexed by [int(1..16), int(1..2)] of int(1..2)
find f_AsReln_RelationAsSet_ExplicitVarSize_tuple2_tuple2_tuple1:
        matrix indexed by [int(1..16)] of int(3, 4)
find f_AsReln_RelationAsSet_ExplicitVarSize_tuple2_tuple2_tuple2:
        matrix indexed by [int(1..16)] of int(5, 6)
such that
    f_AsReln_RelationAsSet_ExplicitVarSize_tuple2_tuple1_Explicit[1, 1]
    <
    f_AsReln_RelationAsSet_ExplicitVarSize_tuple2_tuple1_Explicit[1, 2],
    f_AsReln_RelationAsSet_ExplicitVarSize_tuple2_tuple1_Explicit[2, 1]
    <
    f_AsReln_RelationAsSet_ExplicitVarSize_tuple2_tuple1_Explicit[2, 2],
    f_AsReln_RelationAsSet_ExplicitVarSize_tuple2_tuple1_Explicit[3, 1]
    <
    f_AsReln_RelationAsSet_ExplicitVarSize_tuple2_tuple1_Explicit[3, 2],
    f_AsReln_RelationAsSet_ExplicitVarSize_tuple2_tuple1_Explicit[4, 1]
    <
    f_AsReln_RelationAsSet_ExplicitVarSize_tuple2_tuple1_Explicit[4, 2],
    f_AsReln_RelationAsSet_ExplicitVarSize_tuple2_tuple1_Explicit[5, 1]
    <
    f_AsReln_RelationAsSet_ExplicitVarSize_tuple2_tuple1_Explicit[5, 2],
    f_AsReln_RelationAsSet_ExplicitVarSize_tuple2_tuple1_Explicit[6, 1]
    <
    f_AsReln_RelationAsSet_ExplicitVarSize_tuple2_tuple1_Explicit[6, 2],
    f_AsReln_RelationAsSet_ExplicitVarSize_tuple2_tuple1_Explicit[7, 1]
    <
    f_AsReln_RelationAsSet_ExplicitVarSize_tuple2_tuple1_Explicit[7, 2],
    f_AsReln_RelationAsSet_ExplicitVarSize_tuple2_tuple1_Explicit[8, 1]
    <
    f_AsReln_RelationAsSet_ExplicitVarSize_tuple2_tuple1_Explicit[8, 2],
    f_AsReln_RelationAsSet_ExplicitVarSize_tuple2_tuple1_Explicit[9, 1]
    <
    f_AsReln_RelationAsSet_ExplicitVarSize_tuple2_tuple1_Explicit[9, 2],
    f_AsReln_RelationAsSet_ExplicitVarSize_tuple2_tuple1_Explicit[10, 1]
    <
    f_AsReln_RelationAsSet_ExplicitVarSize_tuple2_tuple1_Explicit[10, 2],
    f_AsReln_RelationAsSet_ExplicitVarSize_tuple2_tuple1_Explicit[11, 1]
    <
    f_AsReln_RelationAsSet_ExplicitVarSize_tuple2_tuple1_Explicit[11, 2],
    f_AsReln_RelationAsSet_ExplicitVarSize_tuple2_tuple1_Explicit[12, 1]
    <
    f_AsReln_RelationAsSet_ExplicitVarSize_tuple2_tuple1_Explicit[12, 2],
    f_AsReln_RelationAsSet_ExplicitVarSize_tuple2_tuple1_Explicit[13, 1]
    <
    f_AsReln_RelationAsSet_ExplicitVarSize_tuple2_tuple1_Explicit[13, 2],
    f_AsReln_RelationAsSet_ExplicitVarSize_tuple2_tuple1_Explicit[14, 1]
    <
    f_AsReln_RelationAsSet_ExplicitVarSize_tuple2_tuple1_Explicit[14, 2],
    f_AsReln_RelationAsSet_ExplicitVarSize_tuple2_tuple1_Explicit[15, 1]
    <
    f_AsReln_RelationAsSet_ExplicitVarSize_tuple2_tuple1_Explicit[15, 2],
    f_AsReln_RelationAsSet_ExplicitVarSize_tuple2_tuple1_Explicit[16, 1]
    <
    f_AsReln_RelationAsSet_ExplicitVarSize_tuple2_tuple1_Explicit[16, 2],
    allDiff(f_AsReln_RelationAsSet_ExplicitVarSize_tuple2_tuple1_Explicit[1, ..]),
    allDiff(f_AsReln_RelationAsSet_ExplicitVarSize_tuple2_tuple1_Explicit[2, ..]),
    allDiff(f_AsReln_RelationAsSet_ExplicitVarSize_tuple2_tuple1_Explicit[3, ..]),
    allDiff(f_AsReln_RelationAsSet_ExplicitVarSize_tuple2_tuple1_Explicit[4, ..]),
    allDiff(f_AsReln_RelationAsSet_ExplicitVarSize_tuple2_tuple1_Explicit[5, ..]),
    allDiff(f_AsReln_RelationAsSet_ExplicitVarSize_tuple2_tuple1_Explicit[6, ..]),
    allDiff(f_AsReln_RelationAsSet_ExplicitVarSize_tuple2_tuple1_Explicit[7, ..]),
    allDiff(f_AsReln_RelationAsSet_ExplicitVarSize_tuple2_tuple1_Explicit[8, ..]),
    allDiff(f_AsReln_RelationAsSet_ExplicitVarSize_tuple2_tuple1_Explicit[9, ..]),
    allDiff(f_AsReln_RelationAsSet_ExplicitVarSize_tuple2_tuple1_Explicit[10, ..]),
    allDiff(f_AsReln_RelationAsSet_ExplicitVarSize_tuple2_tuple1_Explicit[11, ..]),
    allDiff(f_AsReln_RelationAsSet_ExplicitVarSize_tuple2_tuple1_Explicit[12, ..]),
    allDiff(f_AsReln_RelationAsSet_ExplicitVarSize_tuple2_tuple1_Explicit[13, ..]),
    allDiff(f_AsReln_RelationAsSet_ExplicitVarSize_tuple2_tuple1_Explicit[14, ..]),
    allDiff(f_AsReln_RelationAsSet_ExplicitVarSize_tuple2_tuple1_Explicit[15, ..]),
    allDiff(f_AsReln_RelationAsSet_ExplicitVarSize_tuple2_tuple1_Explicit[16, ..]),
    forAll v__0 : int(1..15)
        . f_AsReln_RelationAsSet_ExplicitVarSize_tuple1[v__0]
          <=
          f_AsReln_RelationAsSet_ExplicitVarSize_tuple1[v__0 + 1],
    forAll v__0 : int(1..16)
        . (forAll v__1 : int(1..16)
               . v__0 < v__1 /\ f_AsReln_RelationAsSet_ExplicitVarSize_tuple1[v__0]
                 /\
                 f_AsReln_RelationAsSet_ExplicitVarSize_tuple1[v__1]
                 ->
                 !((forAll v__2 : int(1..2)
                        . (exists v__3 : int(1..2)
                               . f_AsReln_RelationAsSet_ExplicitVarSize_tuple2_tuple1_Explicit[v__1, v__3]
                                 =
                                 f_AsReln_RelationAsSet_ExplicitVarSize_tuple2_tuple1_Explicit[v__0, v__2]))
                   /\
                   (forAll v__2 : int(1..2)
                        . (exists v__3 : int(1..2)
                               . f_AsReln_RelationAsSet_ExplicitVarSize_tuple2_tuple1_Explicit[v__0, v__3]
                                 =
                                 f_AsReln_RelationAsSet_ExplicitVarSize_tuple2_tuple1_Explicit[v__1, v__2])))
                 \/
                 (f_AsReln_RelationAsSet_ExplicitVarSize_tuple2_tuple2_tuple1[v__0]
                  !=
                  f_AsReln_RelationAsSet_ExplicitVarSize_tuple2_tuple2_tuple1[v__1]
                  \/
                  f_AsReln_RelationAsSet_ExplicitVarSize_tuple2_tuple2_tuple2[v__0]
                  !=
                  f_AsReln_RelationAsSet_ExplicitVarSize_tuple2_tuple2_tuple2[v__1])),
    forAll v__0 : matrix indexed by [int(1..2)] of int(1..2)
        . allDiff(v__0) /\ v__0[1] < v__0[2]
          ->
          (sum v__1 : int(1..16)
               . f_AsReln_RelationAsSet_ExplicitVarSize_tuple1[v__1]
                 *
                 ((forAll v__2 : int(1..2)
                       . (exists v__3 : int(1..2)
                              . f_AsReln_RelationAsSet_ExplicitVarSize_tuple2_tuple1_Explicit[v__1, v__3]
                                =
                                v__0[v__2]))
                  /\
                  (forAll v__2 : int(1..2)
                       . (exists v__3 : int(1..2)
                              . v__0[v__3]
                                =
                                f_AsReln_RelationAsSet_ExplicitVarSize_tuple2_tuple1_Explicit[v__1, v__2]))))
          =
          1
